NAME: tsp40_24
COMMENT: 40-tsp problem (Padberg/Rinaldi)
TYPE: TSP
DIMENSION: 40
EDGE_WEIGHT_TYPE : EUC_2D
NODE_COORD_SECTION
1 9 12
2 15 16
3 17 10
4 28 37
5 25 22
6 33 27
7 4 25
8 2 3
9 30 18
10 18 5
11 5 8
12 22 9
13 20 26
14 38 3
15 37 25
16 22 39
17 14 32
18 26 34
19 40 19
20 9 13
21 7 34
22 25 2
23 3 27
24 7 1
25 27 38
26 20 33
27 12 9
28 10 27
29 8 3
30 16 10
31 26 16
32 13 39
33 35 22
34 21 5
35 3 31
36 19 30
37 9 13
38 10 40
39 18 3
40 36 21
